(synth-fun eq1 ( (x Int) (y Int) (z Int) (w Int)) Int ((Start Int (x y z w  100
             (+ Start Start)
             (ite StartBool Start Start)))
 (StartBool Bool (           (not StartBool) (or StartBool)       (>= Start Start) (and StartBool StartBool) ))
))
